files/upTests/tupley12-2-s2-3/0003.eprime.solution
language ESSENCE' 1.0
$ minion Nodes: 1
$ minion TotalTime: 0.000578
$ Savile Row TotalTime: 0.343
letting pain_tuple2_SetOccurrence be [[true;int(9)], 
[true;int(9)];int(1..2)]
letting pain_tuple1_SetExplicit be [[5;int(1..1)], 
[5;int(1..1)];int(1..2)]
